p tw 85 91
1 2
2 13
3 17
4 5
5 6
6 7
7 83
8 9
9 10
10 11
11 83
12 14
13 24
14 15
15 16
16 83
17 18
18 19
19 20
20 21
21 22
22 23
23 25
24 35
25 26
26 27
27 28
28 29
28 33
29 30
30 31
31 32
32 23
33 34
34 36
35 46
36 37
37 38
38 39
38 56
39 40
40 41
41 42
42 43
43 44
44 45
45 47
46 57
46 4
47 48
48 49
49 50
50 51
51 52
52 53
53 54
54 55
55 56
56 58
57 68
58 59
59 60
60 61
61 62
62 63
63 64
64 65
65 66
66 67
67 69
68 79
68 12
69 70
70 71
70 73
71 72
72 73
72 62
73 74
74 75
75 76
76 77
77 78
78 80
79 85
80 81
81 82
82 83
83 84
85 3
85 8
